(set-logic HORN)
(declare-fun inv ((_ BitVec 64) (_ BitVec 64) ) Bool)
(assert (forall ((c (_ BitVec 64)) (i (_ BitVec 64))) 
       (=> ( = i (_ bv0 64) ) (inv c i))))
(assert (forall ((c (_ BitVec 64)) (i (_ BitVec 64)) (c! (_ BitVec 64)) (i! (_ BitVec 64))) 
       (=> (and (inv c i) ( and ( bvugt c (_ bv48 64) ) ( bvult c (_ bv57 64) ) ( = i! ( bvadd i i ( bvsub c (_ bv48 64) ) ) ) )) (inv c! i!))))
(assert (forall ((c (_ BitVec 64)) (i (_ BitVec 64))) 
       (=> (inv c i) ( or ( bvugt c (_ bv57 64) ) ( bvult c (_ bv48 64) ) ( bvuge i (_ bv0 64) ) ))))
(check-sat)
